

******************************************************************************
This program contains Ipopt, a library for large-scale nonlinear optimization.
 Ipopt is released as open source code under the Eclipse Public License (EPL).
         For more information visit http://projects.coin-or.org/Ipopt
******************************************************************************

This is Ipopt version 3.12.8, running with linear solver mumps.
NOTE: Other linear solvers might be more efficient (see Ipopt documentation).

Number of nonzeros in equality constraint Jacobian...:        8
Number of nonzeros in inequality constraint Jacobian.:        0
Number of nonzeros in Lagrangian Hessian.............:        9

Total number of variables............................:        5
                     variables with only lower bounds:        0
                variables with lower and upper bounds:        0
                     variables with only upper bounds:        0
Total number of equality constraints.................:        3
Total number of inequality constraints...............:        0
        inequality constraints with only lower bounds:        0
   inequality constraints with lower and upper bounds:        0
        inequality constraints with only upper bounds:        0

iter    objective    inf_pr   inf_du lg(mu)  ||d||  lg(rg) alpha_du alpha_pr  ls
   0  1.0000000e+00 1.18e+01 9.91e-01  -1.0 0.00e+00    -  0.00e+00 0.00e+00   0
   1  1.0855217e+01 2.87e+00 2.38e+01  -1.0 2.87e+00    -  1.00e+00 1.00e+00h  1
   2  2.3513749e+00 7.49e-01 6.79e+00  -1.0 5.65e-01    -  1.00e+00 1.00e+00f  1
   3  8.7870444e-01 2.18e-01 1.74e+00  -1.0 3.01e-01    -  1.00e+00 1.00e+00f  1
   4  7.6366397e-01 6.48e-02 2.63e-01  -1.0 2.02e-01    -  1.00e+00 1.00e+00h  1
   5  8.2112245e-01 3.26e-03 5.06e-02  -1.7 4.76e-02    -  1.00e+00 1.00e+00h  1
   6  8.2485642e-01 3.08e-05 6.07e-04  -2.5 8.58e-03    -  1.00e+00 1.00e+00h  1
   7  8.2489176e-01 1.19e-08 3.34e-08  -5.7 1.06e-04    -  1.00e+00 1.00e+00h  1
   8  8.2489178e-01 4.44e-16 1.11e-15  -8.6 1.23e-08    -  1.00e+00 1.00e+00h  1

Number of Iterations....: 8

                                   (scaled)                 (unscaled)
Objective...............:   8.2489177828766636e-01    8.2489177828766636e-01
Dual infeasibility......:   1.1102230246251565e-15    1.1102230246251565e-15
Constraint violation....:   4.4408920985006262e-16    4.4408920985006262e-16
Complementarity.........:   0.0000000000000000e+00    0.0000000000000000e+00
Overall NLP error.......:   1.1102230246251565e-15    1.1102230246251565e-15


Number of objective function evaluations             = 9
Number of objective gradient evaluations             = 9
Number of equality constraint evaluations            = 9
Number of inequality constraint evaluations          = 0
Number of equality constraint Jacobian evaluations   = 9
Number of inequality constraint Jacobian evaluations = 0
Number of Lagrangian Hessian evaluations             = 8
Total CPU secs in IPOPT (w/o function evaluations)   =      0.003
Total CPU secs in NLP function evaluations           =      0.000

EXIT: Optimal Solution Found.
 
Ipopt 3.12.8: Optimal Solution Found
